# Objective value = 4.6525300000000007e+03
I_0_0 1230
I_0_1 1.2800000000000002e+03
I_0_2 1.7549999999999998e+03
I_0_3 1.6899999999999998e+03
I_0_4 1.4750000000000002e+03
I_0_5 1.4599999999999993e+03
I_0_6 1.9349999999999993e+03
I_1_0 99
I_1_1 99
I_1_2 0
I_1_3 9.8999999999999972e+01
I_1_4 2.0608514894604468e-14
I_1_5 99
I_1_6 0
I_2_0 160
I_2_1 1.5999999999999994e+02
I_2_2 80.0000000000001
I_2_3 9.9475983006414026e-14
I_2_4 1.5999999999999983e+02
I_2_5 80.0000000000001
I_2_6 6.3948846218409017e-14
I_3_0 126
I_3_1 126
I_3_2 63
I_3_3 0
I_3_4 126
I_3_5 63
I_3_6 0
I_4_0 61
I_4_1 61
I_4_2 0
I_4_3 61
I_4_4 1.2698175844150228e-14
I_4_5 61
I_4_6 0
I_5_0 110
I_5_1 1.0999999999999993e+02
I_5_2 5.5000000000000092e+01
I_5_3 6.7501559897209518e-14
I_5_4 1.0999999999999991e+02
I_5_5 5.5000000000000043e+01
I_5_6 4.9737991503207013e-14
I_6_0 78
I_6_1 39
I_6_2 -4.2632564145606011e-14
I_6_3 78
I_6_4 3.9000000000000021e+01
I_6_5 78
I_6_6 39
I_7_0 64
I_7_1 6.3999999999999979e+01
I_7_2 3.1999999999999964e+01
I_7_3 3.5527136788005009e-15
I_7_4 6.3999999999999979e+01
I_7_5 3.2000000000000021e+01
I_7_6 1.0658141036401503e-14
I_8_0 21
I_8_1 21
I_8_2 0
I_8_3 21
I_8_4 0
I_8_5 21
I_8_6 0
I_9_0 14
I_9_1 1.3999999999999998e+01
I_9_2 9.71445146547012e-16
I_9_3 1.3999999999999995e+01
I_9_4 3.6914915568786455e-15
I_9_5 14
I_9_6 0
I_10_0 22
I_10_1 1.1000000000000002e+01
I_10_2 0
I_10_3 2.1999999999999972e+01
I_10_4 1.0999999999999982e+01
I_10_5 2.1999999999999996e+01
I_10_6 11
q_1_0 99
q_1_1 0
q_1_2 1.9799999999999997e+02
q_1_3 4.9030224325008476e-14
q_1_4 198
q_1_5 0
q_2_0 7.9999999999999943e+01
q_2_1 1.5631940186722204e-13
q_2_2 0
q_2_3 2.3999999999999977e+02
q_2_4 2.1316282072803006e-13
q_2_5 0
q_3_0 63
q_3_1 0
q_3_2 0
q_3_3 189
q_3_4 0
q_3_5 0
q_4_0 61
q_4_1 0
q_4_2 122
q_4_3 1.2698175844150228e-14
q_4_4 1.2199999999999999e+02
q_4_5 0
q_5_0 5.4999999999999929e+01
q_5_1 1.8474111129762605e-13
q_5_2 -2.1316282072803006e-14
q_5_3 1.6499999999999983e+02
q_5_4 1.2789769243681803e-13
q_5_5 0
q_6_0 0
q_6_1 -7.1054273576010019e-15
q_6_2 1.1700000000000004e+02
q_6_3 0
q_6_4 78
q_6_5 0
q_7_0 3.1999999999999979e+01
q_7_1 -2.1316282072803006e-14
q_7_2 3.5527136788005009e-14
q_7_3 96
q_7_4 5.6843418860808015e-14
q_7_5 0
q_8_0 21
q_8_1 0
q_8_2 42
q_8_3 0
q_8_4 42
q_8_5 0
q_9_0 1.3999999999999998e+01
q_9_1 2.7478019859472624e-15
q_9_2 2.7999999999999993e+01
q_9_3 9.0205620750793969e-15
q_9_4 2.7999999999999996e+01
q_9_5 0
q_10_0 1.8318679906315083e-15
q_10_1 -1.7763568394002505e-14
q_10_2 3.2999999999999972e+01
q_10_3 0
q_10_4 2.2000000000000043e+01
q_10_5 0
y_0_0 1
y_0_1 6.9388939039072284e-17
y_0_2 1
y_0_3 1
y_0_4 1
y_0_5 0
y_1_0 1
y_1_1 0
y_1_2 9.9999999999999967e-01
y_1_3 2.0816681711721685e-16
y_1_4 1
y_1_5 0
y_2_0 9.9999999999999933e-01
y_2_1 9.43689570931383e-16
y_2_2 0
y_2_3 9.9999999999999933e-01
y_2_4 9.43689570931383e-16
y_2_5 0
y_3_0 1
y_3_1 0
y_3_2 0
y_3_3 1
y_3_4 0
y_3_5 0
y_4_0 1
y_4_1 0
y_4_2 1
y_4_3 2.0816681711721685e-16
y_4_4 1
y_4_5 0
y_5_0 9.9999999999999867e-01
y_5_1 1.6098233857064770e-15
y_5_2 -3.3306690738754696e-16
y_5_3 9.9999999999999933e-01
y_5_4 8.3266726846886741e-16
y_5_5 0
y_6_0 0
y_6_1 -2.2204460492503131e-16
y_6_2 1
y_6_3 0
y_6_4 1
y_6_5 0
y_7_0 9.9999999999999933e-01
y_7_1 -3.3306690738754696e-16
y_7_2 3.3306690738754696e-16
y_7_3 9.9999999999999956e-01
y_7_4 6.6613381477509392e-16
y_7_5 0
y_8_0 1
y_8_1 0
y_8_2 1
y_8_3 0
y_8_4 1
y_8_5 0
y_9_0 9.9999999999999989e-01
y_9_1 6.9388939039072284e-17
y_9_2 9.9999999999999967e-01
y_9_3 2.6367796834847468e-16
y_9_4 1
y_9_5 0
y_10_0 1.6653345369377348e-16
y_10_1 -4.9960036108132044e-16
y_10_2 1
y_10_3 1.6653345369377348e-16
y_10_4 1
y_10_5 0
x_0_1_0 0
x_0_1_1 0
x_0_1_2 0
x_0_1_3 0
x_0_1_4 0
x_0_1_5 0
x_0_2_0 0
x_0_2_1 6.6613381477509392e-16
x_0_2_2 0
x_0_2_3 0
x_0_2_4 1.5543122344752192e-15
x_0_2_5 0
x_0_3_0 1.0000000000000009e+00
x_0_3_1 0
x_0_3_2 0
x_0_3_3 1.0000000000000013e+00
x_0_3_4 0
x_0_3_5 0
x_0_4_0 0
x_0_4_1 0
x_0_4_2 0
x_0_4_3 0
x_0_4_4 0
x_0_4_5 0
x_0_5_0 0
x_0_5_1 -1.9984014443252818e-15
x_0_5_2 0
x_0_5_3 9.9999999999999933e-01
x_0_5_4 1.9428902930940239e-16
x_0_5_5 0
x_0_6_0 0
x_0_6_1 0
x_0_6_2 0
x_0_6_3 0
x_0_6_4 0
x_0_6_5 0
x_0_7_0 0
x_0_7_1 0
x_0_7_2 0
x_0_7_3 0
x_0_7_4 0
x_0_7_5 0
x_0_8_0 9.9999999999999956e-01
x_0_8_1 -1.6653345369377348e-15
x_0_8_2 9.9999999999999967e-01
x_0_8_3 0
x_0_8_4 9.9999999999999989e-01
x_0_8_5 0
x_0_9_0 0
x_0_9_1 3.3306690738754696e-16
x_0_9_2 1.0000000000000007e+00
x_0_9_3 2.9143354396410359e-16
x_0_9_4 9.9999999999999867e-01
x_0_9_5 0
x_0_10_0 0
x_0_10_1 0
x_0_10_2 0
x_0_10_3 0
x_0_10_4 0
x_0_10_5 0
x_1_2_0 0
x_1_2_1 0
x_1_2_2 0
x_1_2_3 0
x_1_2_4 0
x_1_2_5 0
x_1_3_0 0
x_1_3_1 0
x_1_3_2 0
x_1_3_3 0
x_1_3_4 0
x_1_3_5 0
x_1_4_0 1
x_1_4_1 0
x_1_4_2 9.9999999999999989e-01
x_1_4_3 2.0816681711721685e-16
x_1_4_4 1
x_1_4_5 0
x_1_5_0 0
x_1_5_1 0
x_1_5_2 0
x_1_5_3 0
x_1_5_4 0
x_1_5_5 0
x_1_6_0 0
x_1_6_1 0
x_1_6_2 0
x_1_6_3 0
x_1_6_4 -1.3877787807814457e-16
x_1_6_5 0
x_1_7_0 0
x_1_7_1 0
x_1_7_2 0
x_1_7_3 0
x_1_7_4 0
x_1_7_5 0
x_1_8_0 5.5511151231257827e-17
x_1_8_1 0
x_1_8_2 0
x_1_8_3 0
x_1_8_4 0
x_1_8_5 0
x_1_9_0 9.9999999999999989e-01
x_1_9_1 0
x_1_9_2 -2.2204460492503131e-16
x_1_9_3 0
x_1_9_4 2.7755575615628914e-16
x_1_9_5 0
x_1_10_0 0
x_1_10_1 0
x_1_10_2 9.9999999999999989e-01
x_1_10_3 2.0816681711721685e-16
x_1_10_4 1
x_1_10_5 0
x_2_3_0 9.9999999999999956e-01
x_2_3_1 0
x_2_3_2 0
x_2_3_3 9.9999999999999944e-01
x_2_3_4 0
x_2_3_5 0
x_2_4_0 0
x_2_4_1 0
x_2_4_2 0
x_2_4_3 0
x_2_4_4 0
x_2_4_5 0
x_2_5_0 -2.7755575615628914e-17
x_2_5_1 1.6653345369377348e-15
x_2_5_2 0
x_2_5_3 0
x_2_5_4 0
x_2_5_5 0
x_2_6_0 0
x_2_6_1 0
x_2_6_2 0
x_2_6_3 0
x_2_6_4 0
x_2_6_5 0
x_2_7_0 9.9999999999999933e-01
x_2_7_1 -6.1062266354383610e-16
x_2_7_2 0
x_2_7_3 9.9999999999999978e-01
x_2_7_4 6.1062266354383610e-16
x_2_7_5 0
x_2_8_0 0
x_2_8_1 0
x_2_8_2 0
x_2_8_3 0
x_2_8_4 0
x_2_8_5 0
x_2_9_0 -1.1102230246251565e-16
x_2_9_1 0
x_2_9_2 0
x_2_9_3 0
x_2_9_4 0
x_2_9_5 0
x_2_10_0 0
x_2_10_1 0
x_2_10_2 0
x_2_10_3 0
x_2_10_4 0
x_2_10_5 0
x_3_4_0 0
x_3_4_1 0
x_3_4_2 0
x_3_4_3 0
x_3_4_4 0
x_3_4_5 0
x_3_5_0 0
x_3_5_1 0
x_3_5_2 0
x_3_5_3 0
x_3_5_4 0
x_3_5_5 0
x_3_6_0 0
x_3_6_1 0
x_3_6_2 0
x_3_6_3 0
x_3_6_4 0
x_3_6_5 0
x_3_7_0 0
x_3_7_1 0
x_3_7_2 0
x_3_7_3 0
x_3_7_4 0
x_3_7_5 0
x_3_8_0 0
x_3_8_1 0
x_3_8_2 0
x_3_8_3 0
x_3_8_4 0
x_3_8_5 0
x_3_9_0 0
x_3_9_1 0
x_3_9_2 0
x_3_9_3 0
x_3_9_4 0
x_3_9_5 0
x_3_10_0 0
x_3_10_1 0
x_3_10_2 0
x_3_10_3 0
x_3_10_4 0
x_3_10_5 0
x_4_5_0 0
x_4_5_1 0
x_4_5_2 0
x_4_5_3 0
x_4_5_4 0
x_4_5_5 0
x_4_6_0 0
x_4_6_1 0
x_4_6_2 1.0000000000000002e+00
x_4_6_3 0
x_4_6_4 1.0000000000000002e+00
x_4_6_5 0
x_4_7_0 0
x_4_7_1 0
x_4_7_2 0
x_4_7_3 0
x_4_7_4 0
x_4_7_5 0
x_4_8_0 1
x_4_8_1 0
x_4_8_2 0
x_4_8_3 0
x_4_8_4 0
x_4_8_5 0
x_4_9_0 0
x_4_9_1 0
x_4_9_2 1.1102230246251565e-16
x_4_9_3 2.0816681711721685e-16
x_4_9_4 -1.3877787807814457e-16
x_4_9_5 0
x_4_10_0 0
x_4_10_1 0
x_4_10_2 0
x_4_10_3 0
x_4_10_4 0
x_4_10_5 0
x_5_6_0 0
x_5_6_1 0
x_5_6_2 0
x_5_6_3 0
x_5_6_4 0
x_5_6_5 0
x_5_7_0 9.9999999999999933e-01
x_5_7_1 5.5511151231257827e-16
x_5_7_2 -7.7715611723760958e-16
x_5_7_3 9.9999999999999933e-01
x_5_7_4 7.2164496600635175e-16
x_5_7_5 0
x_5_8_0 0
x_5_8_1 1.9428902930940239e-15
x_5_8_2 0
x_5_8_3 0
x_5_8_4 0
x_5_8_5 0
x_5_9_0 9.9999999999999933e-01
x_5_9_1 0
x_5_9_2 0
x_5_9_3 0
x_5_9_4 7.2164496600635175e-16
x_5_9_5 0
x_5_10_0 0
x_5_10_1 0
x_5_10_2 0
x_5_10_3 -1.3877787807814457e-16
x_5_10_4 0
x_5_10_5 0
x_6_7_0 0
x_6_7_1 0
x_6_7_2 0
x_6_7_3 0
x_6_7_4 0
x_6_7_5 0
x_6_8_0 0
x_6_8_1 -2.7755575615628914e-16
x_6_8_2 1
x_6_8_3 0
x_6_8_4 1
x_6_8_5 0
x_6_9_0 0
x_6_9_1 -2.2204460492503131e-16
x_6_9_2 0
x_6_9_3 0
x_6_9_4 0
x_6_9_5 0
x_6_10_0 0
x_6_10_1 0
x_6_10_2 0
x_6_10_3 0
x_6_10_4 0
x_6_10_5 0
x_7_8_0 0
x_7_8_1 0
x_7_8_2 0
x_7_8_3 0
x_7_8_4 0
x_7_8_5 0
x_7_9_0 0
x_7_9_1 0
x_7_9_2 0
x_7_9_3 0
x_7_9_4 0
x_7_9_5 0
x_7_10_0 1.1102230246251565e-16
x_7_10_1 -9.9920072216264089e-16
x_7_10_2 1.27675647831893e-15
x_7_10_3 2.0816681711721685e-16
x_7_10_4 0
x_7_10_5 0
x_8_9_0 7.2164496600635175e-16
x_8_9_1 0
x_8_9_2 0
x_8_9_3 0
x_8_9_4 1.3877787807814457e-16
x_8_9_5 0
x_8_10_0 0
x_8_10_1 0
x_8_10_2 0
x_8_10_3 0
x_8_10_4 0
x_8_10_5 0
x_9_10_0 0
x_9_10_1 0
x_9_10_2 9.9999999999999967e-01
x_9_10_3 0
x_9_10_4 1
x_9_10_5 0
